nK = 1145;
nT = 6;
nI = 14;
L = 35;
TT = 253;
np = 1;
nc = 3;
b = [22, 28, 51, 22, 53, 50, 25, 43, 40, 64, 24, 32, 65, 59];
d = [103, 70, 114, 50, 109, 126, 137, 77, 78, 132, 142, 84, 137, 120];
m = [1.6, 1.4, 1.4, 2.5, 1.5, 2.5, 1, 1, 1.6, 1.7, 1.8, 2.1, 1.3, 2.3];
pt = [0.21, 0.33, 0.24, 0.34, 0.33, 0.32];
st = [12.6, 19.47, 14.16, 19.38, 17.16, 16];
arc = {<1, 0, 1, 1, 0, 0, 0, [1, 1, 1, 1, 1, 1]>, <2, 1, 2, 1, 0, 0, 0, [1, 1, 1, 1, 1, 1]>, <3, 2, 3, 1, 0, 0, 0, [1, 1, 1, 1, 1, 1]>, <4, 3, 4, 1, 0, 0, 0, [1, 1, 1, 1, 1, 1]>, <5, 4, 5, 1, 0, 0, 0, [1, 1, 1, 1, 1, 1]>, <6, 5, 6, 1, 0, 0, 0, [1, 1, 1, 1, 1, 1]>, <7, 6, 7, 1, 0, 0, 0, [1, 1, 1, 1, 1, 1]>, <8, 7, 8, 1, 0, 0, 0, [1, 1, 1, 1, 1, 1]>, <9, 8, 9, 1, 0, 0, 0, [1, 1, 1, 1, 1, 1]>, <10, 9, 10, 1, 0, 0, 0, [1, 1, 1, 1, 1, 1]>, <11, 10, 11, 1, 0, 0, 0, [1, 1, 1, 1, 1, 1]>, <12, 11, 12, 1, 0, 0, 0, [1, 1, 1, 1, 1, 1]>, <13, 12, 13, 1, 0, 0, 0, [1, 1, 1, 1, 1, 1]>, <14, 13, 14, 1, 0, 0, 0, [1, 1, 1, 1, 1, 1]>, <15, 14, 15, 1, 0, 0, 0, [1, 1, 1, 1, 1, 1]>, <16, 15, 16, 1, 0, 0, 0, [1, 1, 1, 1, 1, 1]>, <17, 16, 17, 1, 0, 0, 0, [1, 1, 1, 1, 1, 1]>, <18, 17, 18, 1, 0, 0, 0, [1, 1, 1, 1, 1, 1]>, <19, 18, 19, 1, 0, 0, 0, [1, 1, 1, 1, 1, 1]>, <20, 19, 20, 1, 0, 0, 0, [1, 1, 1, 1, 1, 1]>, <21, 20, 21, 1, 0, 0, 0, [1, 1, 1, 1, 1, 1]>, <22, 21, 22, 1, 0, 0, 0, [1, 1, 1, 1, 1, 1]>, <23, 22, 23, 1, 0, 0, 0, [1, 1, 1, 1, 1, 1]>, <24, 23, 24, 1, 0, 0, 0, [1, 1, 1, 1, 1, 1]>, <25, 24, 25, 1, 0, 0, 0, [1, 1, 1, 1, 1, 1]>, <26, 25, 26, 1, 0, 0, 0, [1, 1, 1, 1, 1, 1]>, <27, 26, 27, 1, 0, 0, 0, [1, 1, 1, 1, 1, 1]>, <28, 27, 28, 1, 0, 0, 0, [1, 1, 1, 1, 1, 1]>, <29, 28, 29, 1, 0, 0, 0, [1, 1, 1, 1, 1, 1]>, <30, 29, 30, 1, 0, 0, 0, [1, 1, 1, 1, 1, 1]>, <31, 30, 31, 1, 0, 0, 0, [1, 1, 1, 1, 1, 1]>, <32, 31, 32, 1, 0, 0, 0, [1, 1, 1, 1, 1, 1]>, <33, 32, 33, 1, 0, 0, 0, [1, 1, 1, 1, 1, 1]>, <34, 33, 34, 1, 0, 0, 0, [1, 1, 1, 1, 1, 1]>, <35, 34, 35, 1, 0, 0, 0, [1, 1, 1, 1, 1, 1]>, <36, 5, 15, 10, 1, 0, 1, [0, 0, 1, 1, 0, 0]>, <37, 6, 16, 10, 1, 0, 1, [0, 0, 1, 1, 0, 0]>, <38, 14, 24, 10, 1, 0, 1, [0, 0, 1, 1, 0, 0]>, <39, 15, 25, 10, 1, 0, 1, [0, 0, 1, 1, 0, 0]>, <40, 21, 31, 10, 1, 0, 1, [0, 0, 1, 1, 0, 0]>, <41, 22, 32, 10, 1, 0, 1, [0, 0, 1, 1, 0, 0]>, <42, 23, 33, 10, 1, 0, 1, [0, 0, 1, 1, 0, 0]>, <43, 24, 34, 10, 1, 0, 1, [0, 0, 1, 1, 0, 0]>, <44, 3, 17, 14, 2, 0, 0, [1, 1, 0, 0, 0, 0]>, <45, 4, 18, 14, 2, 0, 0, [1, 1, 0, 0, 0, 0]>, <46, 5, 19, 14, 2, 0, 0, [1, 1, 0, 0, 0, 0]>, <47, 6, 20, 14, 2, 0, 0, [1, 1, 0, 0, 0, 0]>, <48, 12, 26, 14, 2, 0, 0, [1, 1, 0, 0, 0, 0]>, <49, 13, 27, 14, 2, 0, 0, [1, 1, 0, 0, 0, 0]>, <50, 14, 28, 14, 2, 0, 0, [1, 1, 0, 0, 0, 0]>, <51, 15, 29, 14, 2, 0, 0, [1, 1, 0, 0, 0, 0]>, <52, 17, 31, 14, 2, 0, 0, [1, 1, 0, 0, 0, 0]>, <53, 18, 32, 14, 2, 0, 0, [1, 1, 0, 0, 0, 0]>, <54, 19, 33, 14, 2, 0, 0, [1, 1, 0, 0, 0, 0]>, <55, 20, 34, 14, 2, 0, 0, [1, 1, 0, 0, 0, 0]>, <56, 21, 35, 14, 2, 0, 0, [1, 1, 0, 0, 0, 0]>, <57, 5, 16, 11, 3, 0, 0, [0, 0, 1, 1, 0, 0]>, <58, 6, 17, 11, 3, 0, 0, [0, 0, 1, 1, 0, 0]>, <59, 14, 25, 11, 3, 0, 0, [0, 0, 1, 1, 0, 0]>, <60, 15, 26, 11, 3, 0, 0, [0, 0, 1, 1, 0, 0]>, <61, 20, 31, 11, 3, 0, 0, [0, 0, 1, 1, 0, 0]>, <62, 21, 32, 11, 3, 0, 0, [0, 0, 1, 1, 0, 0]>, <63, 22, 33, 11, 3, 0, 0, [0, 0, 1, 1, 0, 0]>, <64, 23, 34, 11, 3, 0, 0, [0, 0, 1, 1, 0, 0]>, <65, 24, 35, 11, 3, 0, 0, [0, 0, 1, 1, 0, 0]>, <66, 5, 15, 10, 4, 0, 1, [0, 0, 0, 0, 1, 1]>, <67, 6, 16, 10, 4, 0, 1, [0, 0, 0, 0, 1, 1]>, <68, 14, 24, 10, 4, 0, 1, [0, 0, 0, 0, 1, 1]>, <69, 15, 25, 10, 4, 0, 1, [0, 0, 0, 0, 1, 1]>, <70, 21, 31, 10, 4, 0, 1, [0, 0, 0, 0, 1, 1]>, <71, 22, 32, 10, 4, 0, 1, [0, 0, 0, 0, 1, 1]>, <72, 23, 33, 10, 4, 0, 1, [0, 0, 0, 0, 1, 1]>, <73, 24, 34, 10, 4, 0, 1, [0, 0, 0, 0, 1, 1]>, <74, 3, 17, 14, 5, 0, 0, [1, 1, 0, 0, 0, 0]>, <75, 4, 18, 14, 5, 0, 0, [1, 1, 0, 0, 0, 0]>, <76, 5, 19, 14, 5, 0, 0, [1, 1, 0, 0, 0, 0]>, <77, 6, 20, 14, 5, 0, 0, [1, 1, 0, 0, 0, 0]>, <78, 12, 26, 14, 5, 0, 0, [1, 1, 0, 0, 0, 0]>, <79, 13, 27, 14, 5, 0, 0, [1, 1, 0, 0, 0, 0]>, <80, 14, 28, 14, 5, 0, 0, [1, 1, 0, 0, 0, 0]>, <81, 15, 29, 14, 5, 0, 0, [1, 1, 0, 0, 0, 0]>, <82, 17, 31, 14, 5, 0, 0, [1, 1, 0, 0, 0, 0]>, <83, 18, 32, 14, 5, 0, 0, [1, 1, 0, 0, 0, 0]>, <84, 19, 33, 14, 5, 0, 0, [1, 1, 0, 0, 0, 0]>, <85, 20, 34, 14, 5, 0, 0, [1, 1, 0, 0, 0, 0]>, <86, 21, 35, 14, 5, 0, 0, [1, 1, 0, 0, 0, 0]>, <87, 5, 15, 10, 6, 0, 0, [1, 1, 0, 0, 0, 0]>, <88, 6, 16, 10, 6, 0, 0, [1, 1, 0, 0, 0, 0]>, <89, 14, 24, 10, 6, 0, 0, [1, 1, 0, 0, 0, 0]>, <90, 15, 25, 10, 6, 0, 0, [1, 1, 0, 0, 0, 0]>, <91, 21, 31, 10, 6, 0, 0, [1, 1, 0, 0, 0, 0]>, <92, 22, 32, 10, 6, 0, 0, [1, 1, 0, 0, 0, 0]>, <93, 23, 33, 10, 6, 0, 0, [1, 1, 0, 0, 0, 0]>, <94, 24, 34, 10, 6, 0, 0, [1, 1, 0, 0, 0, 0]>, <95, 5, 15, 10, 7, 0, 1, [1, 0, 0, 0, 0, 1]>, <96, 6, 16, 10, 7, 0, 1, [1, 0, 0, 0, 0, 1]>, <97, 14, 24, 10, 7, 0, 1, [1, 0, 0, 0, 0, 1]>, <98, 15, 25, 10, 7, 0, 1, [1, 0, 0, 0, 0, 1]>, <99, 21, 31, 10, 7, 0, 1, [1, 0, 0, 0, 0, 1]>, <100, 22, 32, 10, 7, 0, 1, [1, 0, 0, 0, 0, 1]>, <101, 23, 33, 10, 7, 0, 1, [1, 0, 0, 0, 0, 1]>, <102, 24, 34, 10, 7, 0, 1, [1, 0, 0, 0, 0, 1]>, <103, 5, 15, 10, 8, 0, 0, [1, 0, 0, 0, 0, 1]>, <104, 6, 16, 10, 8, 0, 0, [1, 0, 0, 0, 0, 1]>, <105, 14, 24, 10, 8, 0, 0, [1, 0, 0, 0, 0, 1]>, <106, 15, 25, 10, 8, 0, 0, [1, 0, 0, 0, 0, 1]>, <107, 21, 31, 10, 8, 0, 0, [1, 0, 0, 0, 0, 1]>, <108, 22, 32, 10, 8, 0, 0, [1, 0, 0, 0, 0, 1]>, <109, 23, 33, 10, 8, 0, 0, [1, 0, 0, 0, 0, 1]>, <110, 24, 34, 10, 8, 0, 0, [1, 0, 0, 0, 0, 1]>, <111, 5, 15, 10, 9, 0, 0, [0, 0, 1, 1, 0, 0]>, <112, 6, 16, 10, 9, 0, 0, [0, 0, 1, 1, 0, 0]>, <113, 14, 24, 10, 9, 0, 0, [0, 0, 1, 1, 0, 0]>, <114, 15, 25, 10, 9, 0, 0, [0, 0, 1, 1, 0, 0]>, <115, 21, 31, 10, 9, 0, 0, [0, 0, 1, 1, 0, 0]>, <116, 22, 32, 10, 9, 0, 0, [0, 0, 1, 1, 0, 0]>, <117, 23, 33, 10, 9, 0, 0, [0, 0, 1, 1, 0, 0]>, <118, 24, 34, 10, 9, 0, 0, [0, 0, 1, 1, 0, 0]>, <119, 5, 15, 10, 10, 0, 1, [0, 1, 1, 0, 0, 0]>, <120, 6, 16, 10, 10, 0, 1, [0, 1, 1, 0, 0, 0]>, <121, 14, 24, 10, 10, 0, 1, [0, 1, 1, 0, 0, 0]>, <122, 15, 25, 10, 10, 0, 1, [0, 1, 1, 0, 0, 0]>, <123, 21, 31, 10, 10, 0, 1, [0, 1, 1, 0, 0, 0]>, <124, 22, 32, 10, 10, 0, 1, [0, 1, 1, 0, 0, 0]>, <125, 23, 33, 10, 10, 0, 1, [0, 1, 1, 0, 0, 0]>, <126, 24, 34, 10, 10, 0, 1, [0, 1, 1, 0, 0, 0]>, <127, 3, 17, 14, 11, 0, 1, [0, 0, 1, 1, 0, 0]>, <128, 4, 18, 14, 11, 0, 1, [0, 0, 1, 1, 0, 0]>, <129, 5, 19, 14, 11, 0, 1, [0, 0, 1, 1, 0, 0]>, <130, 6, 20, 14, 11, 0, 1, [0, 0, 1, 1, 0, 0]>, <131, 12, 26, 14, 11, 0, 1, [0, 0, 1, 1, 0, 0]>, <132, 13, 27, 14, 11, 0, 1, [0, 0, 1, 1, 0, 0]>, <133, 14, 28, 14, 11, 0, 1, [0, 0, 1, 1, 0, 0]>, <134, 15, 29, 14, 11, 0, 1, [0, 0, 1, 1, 0, 0]>, <135, 17, 31, 14, 11, 0, 1, [0, 0, 1, 1, 0, 0]>, <136, 18, 32, 14, 11, 0, 1, [0, 0, 1, 1, 0, 0]>, <137, 19, 33, 14, 11, 0, 1, [0, 0, 1, 1, 0, 0]>, <138, 20, 34, 14, 11, 0, 1, [0, 0, 1, 1, 0, 0]>, <139, 21, 35, 14, 11, 0, 1, [0, 0, 1, 1, 0, 0]>, <140, 5, 15, 10, 12, 0, 1, [1, 0, 0, 0, 0, 1]>, <141, 6, 16, 10, 12, 0, 1, [1, 0, 0, 0, 0, 1]>, <142, 14, 24, 10, 12, 0, 1, [1, 0, 0, 0, 0, 1]>, <143, 15, 25, 10, 12, 0, 1, [1, 0, 0, 0, 0, 1]>, <144, 21, 31, 10, 12, 0, 1, [1, 0, 0, 0, 0, 1]>, <145, 22, 32, 10, 12, 0, 1, [1, 0, 0, 0, 0, 1]>, <146, 23, 33, 10, 12, 0, 1, [1, 0, 0, 0, 0, 1]>, <147, 24, 34, 10, 12, 0, 1, [1, 0, 0, 0, 0, 1]>, <148, 5, 17, 12, 13, 0, 0, [0, 0, 0, 1, 1, 0]>, <149, 6, 18, 12, 13, 0, 0, [0, 0, 0, 1, 1, 0]>, <150, 14, 26, 12, 13, 0, 0, [0, 0, 0, 1, 1, 0]>, <151, 15, 27, 12, 13, 0, 0, [0, 0, 0, 1, 1, 0]>, <152, 19, 31, 12, 13, 0, 0, [0, 0, 0, 1, 1, 0]>, <153, 20, 32, 12, 13, 0, 0, [0, 0, 0, 1, 1, 0]>, <154, 21, 33, 12, 13, 0, 0, [0, 0, 0, 1, 1, 0]>, <155, 22, 34, 12, 13, 0, 0, [0, 0, 0, 1, 1, 0]>, <156, 23, 35, 12, 13, 0, 0, [0, 0, 0, 1, 1, 0]>, <157, 4, 17, 13, 14, 0, 1, [1, 1, 0, 0, 0, 0]>, <158, 5, 18, 13, 14, 0, 1, [1, 1, 0, 0, 0, 0]>, <159, 6, 19, 13, 14, 0, 1, [1, 1, 0, 0, 0, 0]>, <160, 13, 26, 13, 14, 0, 1, [1, 1, 0, 0, 0, 0]>, <161, 14, 27, 13, 14, 0, 1, [1, 1, 0, 0, 0, 0]>, <162, 15, 28, 13, 14, 0, 1, [1, 1, 0, 0, 0, 0]>, <163, 18, 31, 13, 14, 0, 1, [1, 1, 0, 0, 0, 0]>, <164, 19, 32, 13, 14, 0, 1, [1, 1, 0, 0, 0, 0]>, <165, 20, 33, 13, 14, 0, 1, [1, 1, 0, 0, 0, 0]>, <166, 21, 34, 13, 14, 0, 1, [1, 1, 0, 0, 0, 0]>, <167, 22, 35, 13, 14, 0, 1, [1, 1, 0, 0, 0, 0]>};
